N = 12;
H = 5;
T = 2;

avail = array3d(1..N, 1..H, 1..T, [3, 7, 3, 3, 1, 3, 8, 4, 6, 1, 2, 6, 10, 8, 8, 8, 6, 5, 4, 8, 8, 1, 7, 2, 4, 3, 4, 4, 6, 6, 4, 10, 9, 8, 10, 6, 4, 1, 6, 2, 10, 1, 8, 1, 4, 2, 4, 0, 9, 4, 0, 10, 6, 3, 1, 2, 8, 3, 8, 7, 2, 10, 2, 7, 5, 4, 5, 3, 1, 4, 6, 0, 6, 9, 4, 4, 0, 1, 7, 9, 10, 3, 0, 2, 9, 3, 9, 6, 5, 8, 10, 3, 10, 0, 2, 4, 7, 1, 0, 0, 5, 4, 3, 9, 4, 2, 6, 7, 0, 5, 0, 0, 7, 3, 9, 5, 5, 0, 3, 10]);

r = array2d(1..H, 1..T, [6, 0, 1, 5, 1, 1, 5, 4, 2, 2]);
